12 32 6 10
20 13 4 11 20 5 16 9 3 4 8 3 11 8 12 19 4 13 13 2 18 2 5 20 19 13 16 11 6 20 1 14 
0.61 7.48 5.1 6.56 5.53 1.59 7.18 0.32 7.14 6.65 4.25 1.81 4.48 0.87 4.56 0.93 2.24 1.07 6.12 0.66 4.75 4.24 4.38 7.82 4.18 2.96 6.63 6.52 1.97 1.7 0.93 0.94 
2.44 3.99 5.39 2.04 5.21 3.02 0.44 4.97 3.83 5.32 1.61 0.21 7.64 6.14 6.34 1.75 5.1 4.4 4.95 2.04 1.35 1.07 2.17 4.53 1.82 6.4 5.57 3.64 7.27 3.18 4.59 5.91 
6.49 0.75 3.09 6.34 2.13 2.43 4.46 1.43 5.32 1.86 6.97 7.84 4.21 6.98 7.36 4.8 5.09 6.3 0.88 1.88 4.15 4.82 4.06 1.57 7.3 1.11 2.48 3.63 6.09 7.14 1.14 0.13 
3.65 5.83 0.87 4.91 2.84 2.32 0.5 5.23 6.34 3.78 2.18 6.23 5.63 6.56 2.47 4.36 0.03 7.27 4.56 2.67 0.9 5.68 3.37 7.79 0.39 1 5.66 2.07 0.44 1.61 6.05 2.62 
6.67 5.98 1.35 6.88 5 2.98 7.51 4.41 7.98 5.97 6.17 4.48 6.72 6.8 7.79 5.79 5.67 4.06 5.09 4.21 4.01 0.11 1.87 1.35 2.12 2.98 1.63 1.75 3.71 2.21 4.42 1.16 
0.15 0.87 6.79 2.13 6.68 6.45 0.67 4.74 5.84 2.65 0 4.63 6.89 0.22 7.74 2.72 5.28 6.37 3.51 3.42 4.64 6.3 5.12 7.43 0.61 0.12 0.19 6.56 3.88 1.08 1.21 3.31 
4 4 4 4 4 4 4 4 4 4 4 4 4 4 4 4 4 4 4 4 4 4 4 4 4 4 4 4 4 4 4 4 
0.75 5.05 2.47 4.15 1.54 1.93 0.71 7.26 4.32 3.6 0.88 7.44 2.01 5.2 1.24 4.14 2.45 3.2 1.59 6.81 1.12 5.59 0.37 2.85 7.35 2.57 2.73 4.36 3.12 3.14 5.31 2.17 
6.09 2.43 7.28 6.2 3.3 0.9 1.09 6.19 6.5 2.5 5.63 6.2 1.82 7.77 0.83 2.9 3.87 3.35 7.41 2.35 5.44 0.57 7.55 3.71 1.63 2.37 5.87 2.07 7.97 6.18 7.43 2.7 
1.68 2.96 5.47 1.38 5.99 7.49 2.34 0.16 5.26 1.84 0.28 3.97 6.97 0.56 7.32 2.09 7.56 1.8 0.08 7.17 3.18 1.34 6.45 6.18 4.63 3.15 3.97 1.41 2.29 7.93 2.17 7.73 
0.44 3.55 3.25 2.88 4.13 6.49 0.14 6.06 1.2 0.66 4.34 7.16 1.02 1.82 2.14 4.95 1.39 6.48 3.1 1.53 3.06 7.82 0.07 0.94 7.6 7.31 3.57 7.74 4.87 0.5 7.63 2.82 
3.42 6.27 5.15 6.13 4.43 0.74 5.08 6.71 1.83 0.26 4.04 3.55 3.76 2.92 5.99 4.62 1.79 3.14 4.37 6.42 2.53 7 5.96 3.6 7.94 4.17 6.05 2.52 7.38 7.46 2.23 1.03 
1 1 1 1 1 1 1 1 1 1 1 1 1 1 1 1 1 1 1 1 1 1 1 1 1 1 1 1 1 1 1 1 
1 1 1 1 1 1 1 1 1 1 1 1 1 1 1 1 1 1 1 1 1 1 1 1 1 1 1 1 1 1 1 1 
1 1 1 1 1 1 1 1 1 1 1 1 1 1 1 1 1 1 1 1 1 1 1 1 1 1 1 1 1 1 1 1 
1 1 1 1 1 1 1 1 1 1 1 1 1 1 1 1 1 1 1 1 1 1 1 1 1 1 1 1 1 1 1 1 
1 1 1 1 1 1 1 1 1 1 1 1 1 1 1 1 1 1 1 1 1 1 1 1 1 1 1 1 1 1 1 1 
1 1 1 1 1 1 1 1 1 1 1 1 1 1 1 1 1 1 1 1 1 1 1 1 1 1 1 1 1 1 1 1 
1 1 1 1 1 1 1 1 1 1 1 1 1 1 1 1 1 1 1 1 1 1 1 1 1 1 1 1 1 1 1 1 
1 1 1 1 1 1 1 1 1 1 1 1 1 1 1 1 1 1 1 1 1 1 1 1 1 1 1 1 1 1 1 1 
1 1 1 1 1 1 1 1 1 1 1 1 1 1 1 1 1 1 1 1 1 1 1 1 1 1 1 1 1 1 1 1 
1 1 1 1 1 1 1 1 1 1 1 1 1 1 1 1 1 1 1 1 1 1 1 1 1 1 1 1 1 1 1 1 
1 1 1 1 1 1 1 1 1 1 1 1 1 1 1 1 1 1 1 1 1 1 1 1 1 1 1 1 1 1 1 1 
1 1 1 1 1 1 1 1 1 1 1 1 1 1 1 1 1 1 1 1 1 1 1 1 1 1 1 1 1 1 1 1 
0.01 0.01 0.01 0.01 0.01 0.01 0.01 0.01 0.01 0.01 0.01 0.01 0.01 0.01 0.01 0.01 0.01 0.01 0.01 0.01 0.01 0.01 0.01 0.01 0.01 0.01 0.01 0.01 0.01 0.01 0.01 0.01 
0.02 0.02 0.02 0.02 0.02 0.02 0.02 0.02 0.02 0.02 0.02 0.02 0.02 0.02 0.02 0.02 0.02 0.02 0.02 0.02 0.02 0.02 0.02 0.02 0.02 0.02 0.02 0.02 0.02 0.02 0.02 0.02 
0.03 0.03 0.03 0.03 0.03 0.03 0.03 0.03 0.03 0.03 0.03 0.03 0.03 0.03 0.03 0.03 0.03 0.03 0.03 0.03 0.03 0.03 0.03 0.03 0.03 0.03 0.03 0.03 0.03 0.03 0.03 0.03 
0.04 0.04 0.04 0.04 0.04 0.04 0.04 0.04 0.04 0.04 0.04 0.04 0.04 0.04 0.04 0.04 0.04 0.04 0.04 0.04 0.04 0.04 0.04 0.04 0.04 0.04 0.04 0.04 0.04 0.04 0.04 0.04 
0.05 0.05 0.05 0.05 0.05 0.05 0.05 0.05 0.05 0.05 0.05 0.05 0.05 0.05 0.05 0.05 0.05 0.05 0.05 0.05 0.05 0.05 0.05 0.05 0.05 0.05 0.05 0.05 0.05 0.05 0.05 0.05 
0.06 0.06 0.06 0.06 0.06 0.06 0.06 0.06 0.06 0.06 0.06 0.06 0.06 0.06 0.06 0.06 0.06 0.06 0.06 0.06 0.06 0.06 0.06 0.06 0.06 0.06 0.06 0.06 0.06 0.06 0.06 0.06 
0.07 0.07 0.07 0.07 0.07 0.07 0.07 0.07 0.07 0.07 0.07 0.07 0.07 0.07 0.07 0.07 0.07 0.07 0.07 0.07 0.07 0.07 0.07 0.07 0.07 0.07 0.07 0.07 0.07 0.07 0.07 0.07 
0.2 0.2 0.2 0.2 0.2 0.2 0.2 0.2 0.2 0.2 0.2 0.2 0.2 0.2 0.2 0.2 0.2 0.2 0.2 0.2 0.2 0.2 0.2 0.2 0.2 0.2 0.2 0.2 0.2 0.2 0.2 0.2 
0.4 0.4 0.4 0.4 0.4 0.4 0.4 0.4 0.4 0.4 0.4 0.4 0.4 0.4 0.4 0.4 0.4 0.4 0.4 0.4 0.4 0.4 0.4 0.4 0.4 0.4 0.4 0.4 0.4 0.4 0.4 0.4 
0.6 0.6 0.6 0.6 0.6 0.6 0.6 0.6 0.6 0.6 0.6 0.6 0.6 0.6 0.6 0.6 0.6 0.6 0.6 0.6 0.6 0.6 0.6 0.6 0.6 0.6 0.6 0.6 0.6 0.6 0.6 0.6 
0.8 0.8 0.8 0.8 0.8 0.8 0.8 0.8 0.8 0.8 0.8 0.8 0.8 0.8 0.8 0.8 0.8 0.8 0.8 0.8 0.8 0.8 0.8 0.8 0.8 0.8 0.8 0.8 0.8 0.8 0.8 0.8 
1 1 1 1 1 1 1 1 1 1 1 1 1 1 1 1 1 1 1 1 1 1 1 1 1 1 1 1 1 1 1 1 
